17	4
14	12	12	13	
0	0	0	0	0	3	2	3	4	
4	0	9	4	2	3	5	14	17	
4	5	9	3	8	2	8	17	
4	0	2	0	9	3	6	9	11	
7	0	5	0	3	3	7	8	17	
150	9	4	2	4	3	10	13	17	
25	5	8	0	2	2	9	10	
175	0	4	2	4	3	13	16	17	
100	0	6	5	1	2	12	17	
75	6	8	2	0	3	15	17	17	
75	4	0	7	8	1	16	
125	7	0	10	2	3	15	17	17	
7	0	0	0	3	3	17	17	17	
6	9	4	2	5	2	16	17	
7	4	1	0	0	1	17	
6	0	6	10	8	2	17	17	
0	0	0	0	0	0	
